
Gurobi 12.0.2 (win64) logging started Thu Jun  5 10:48:22 2025

Set parameter LogFile to value "C:\Ioana\_uni\honours\slp\algorithm\Main_files\results\others\prox_tubules\Task_002_Sample004_irr_gurobi.log"
Gurobi Optimizer version 12.0.2 build v12.0.2rc0 (win64 - Windows 11.0 (26100.2))

CPU model: Intel(R) Core(TM) Ultra 5 125H, instruction set [SSE2|AVX|AVX2]
Thread count: 14 physical cores, 18 logical processors, using up to 18 threads

Non-default parameters:
TimeLimit  2200

Optimize a model with 47658 rows, 34811 columns and 147858 nonzeros
Model fingerprint: 0x70e77e8f
Variable types: 17417 continuous, 17394 integer (17394 binary)
Coefficient statistics:
  Matrix range     [1e-04, 8e+04]
  Objective range  [3e-05, 1e+01]
  Bounds range     [1e+00, 1e+03]
  RHS range        [1e+00, 1e+00]
Presolve removed 31202 rows and 21852 columns
Presolve time: 0.32s
Presolved: 16456 rows, 12959 columns, 54693 nonzeros
Variable types: 6413 continuous, 6546 integer (6546 binary)

Root relaxation: objective 3.456168e-03, 1563 iterations, 0.08 seconds (0.13 work units)

    Nodes    |    Current Node    |     Objective Bounds      |     Work
 Expl Unexpl |  Obj  Depth IntInf | Incumbent    BestBd   Gap | It/Node Time

     0     0    0.00346    0   15          -    0.00346      -     -    0s
H    0     0                       2.4677255    0.00346   100%     -    0s
     0     0    2.43851    0   31    2.46773    2.43851  1.18%     -    1s
     0     0    2.44352    0   17    2.46773    2.44352  0.98%     -    1s
     0     0    2.45762    0   16    2.46773    2.45762  0.41%     -    1s
     0     0    2.46088    0    4    2.46773    2.46088  0.28%     -    1s
     0     0    2.46088    0    3    2.46773    2.46088  0.28%     -    1s
     0     0    2.46140    0    2    2.46773    2.46140  0.26%     -    1s
     0     0          -    0         2.46773    2.46772  0.00%     -    1s

Cutting planes:
  MIR: 9
  Flow cover: 10
  Flow path: 2
  Network: 1
  Relax-and-lift: 1

Explored 1 nodes (4850 simplex iterations) in 1.58 seconds (1.61 work units)
Thread count was 18 (of 18 available processors)

Solution count 1: 2.46773 

Optimal solution found (tolerance 1.00e-04)
Best objective 2.467725471111e+00, best bound 2.467722443984e+00, gap 0.0001%
